NAME evolution_srl_ilp
* Max problem is converted into Min one
ROWS
 N  OBJ
 L  constraint1_3200
 L  constraint1_3203
 L  constraint2_3200
 L  constraint2_3201
 L  constraint2_3202
 L  constraint2_3203
COLUMNS
    MARKER    'MARKER'                 'INTORG'
    Z_320_0_0  OBJ       -9.6734753880994503e-04
    Z_320_0_0  constraint1_3200  1
    Z_320_0_0  constraint2_3200  1
    Z_320_0_1  OBJ       -2.0549797505580824e-03
    Z_320_0_1  constraint1_3200  1
    Z_320_0_1  constraint2_3201  1
    Z_320_0_2  OBJ       -8.3211051848058215e-01
    Z_320_0_2  constraint1_3200  1
    Z_320_0_2  constraint2_3202  1
    Z_320_0_3  OBJ       -4.3441758372158414e-03
    Z_320_0_3  constraint1_3200  1
    Z_320_0_3  constraint2_3203  1
    Z_320_0_4  OBJ       -6.0522978392833986e-02
    Z_320_0_4  constraint1_3200  1
    Z_320_3_0  OBJ       -3.3945671621134196e-02
    Z_320_3_0  constraint1_3203  1
    Z_320_3_0  constraint2_3200  1
    Z_320_3_1  OBJ       -4.9890839890769497e-03
    Z_320_3_1  constraint1_3203  1
    Z_320_3_1  constraint2_3201  1
    Z_320_3_2  OBJ       -1.2284020817040279e-02
    Z_320_3_2  constraint1_3203  1
    Z_320_3_2  constraint2_3202  1
    Z_320_3_3  OBJ       -1.0753687886442310e-01
    Z_320_3_3  constraint1_3203  1
    Z_320_3_3  constraint2_3203  1
    Z_320_3_4  OBJ       -7.4124434470832556e-01
    Z_320_3_4  constraint1_3203  1
    MARKER    'MARKER'                 'INTEND'
RHS
    RHS1      constraint1_3200  1
    RHS1      constraint1_3203  1
    RHS1      constraint2_3200  1
    RHS1      constraint2_3201  1
    RHS1      constraint2_3202  1
    RHS1      constraint2_3203  1
BOUNDS
 UP BND1      Z_320_0_0  1
 UP BND1      Z_320_0_1  1
 UP BND1      Z_320_0_2  1
 UP BND1      Z_320_0_3  1
 UP BND1      Z_320_0_4  1
 UP BND1      Z_320_3_0  1
 UP BND1      Z_320_3_1  1
 UP BND1      Z_320_3_2  1
 UP BND1      Z_320_3_3  1
 UP BND1      Z_320_3_4  1
ENDATA
